treewidth/data/contiki_lpp_dutycycle.gr
p tw 102 114
1 2
2 15
3 6
4 5
6 7
6 65
7 8
8 9
8 82
9 10
10 11
10 97
11 100
12 13
13 14
14 16
15 26
16 17
17 18
18 19
19 20
20 21
21 22
22 23
23 24
24 25
25 27
26 37
27 28
28 29
28 30
29 4
30 31
31 32
32 33
32 85
33 34
33 68
34 35
35 36
36 38
37 48
38 39
38 44
39 40
40 41
41 42
42 43
43 44
44 45
45 46
46 47
47 49
48 59
49 50
49 51
50 51
51 52
52 53
53 54
54 55
55 56
56 57
57 58
58 60
59 70
60 61
61 62
62 63
63 64
64 65
65 66
66 67
66 12
67 4
68 69
69 71
70 81
70 12
71 72
72 73
73 74
74 75
75 76
76 77
77 78
78 79
79 80
80 82
81 92
82 83
83 84
83 12
84 4
85 86
86 87
87 88
88 89
89 90
90 91
91 93
92 3
92 27
93 94
94 95
95 96
96 97
97 98
98 99
98 12
99 4
100 101
101 102
102 4
