treewidth/data/contiki_lpp_dutycycle.td
c width = 5, time = 0.070222
s td 95 6 102
b 1 4 8 10 12 97 98
b 2 4 8 12 33 92 97
b 3 4 8 12 33 65 92
b 4 6 8 65 92
b 5 4 12 65 66
b 6 4 12 28 33 92 97
b 7 12 27 28 92
b 8 28 32 33 97
b 9 4 8 12 33 82 83
b 10 33 38 44
b 11 33 44 49
b 12 33 49 51
b 13 33 51 65
b 14 4 10 11
b 15 4 11 100
b 16 4 100 101
b 17 4 101 102
b 18 8 6 7
b 19 10 8 9
b 20 27 12 13
b 21 27 13 14
b 22 27 14 16
b 23 27 16 17
b 24 27 17 18
b 25 27 18 19
b 26 27 19 20
b 27 27 20 21
b 28 27 21 22
b 29 27 22 23
b 30 27 23 24
b 31 27 24 25
b 32 28 4 29
b 33 32 28 30
b 34 32 30 31
b 35 38 33 34
b 36 38 34 35
b 37 38 35 36
b 38 44 38 39
b 39 44 39 40
b 40 44 40 41
b 41 44 41 42
b 42 44 42 43
b 43 49 44 45
b 44 49 45 46
b 45 49 46 47
b 46 51 49 50
b 47 65 51 52
b 48 65 52 53
b 49 65 53 54
b 50 65 54 55
b 51 65 55 56
b 52 65 56 57
b 53 65 57 58
b 54 65 58 60
b 55 65 60 61
b 56 65 61 62
b 57 65 62 63
b 58 65 63 64
b 59 66 4 67
b 60 82 33 68
b 61 82 68 69
b 62 82 69 71
b 63 82 71 72
b 64 82 72 73
b 65 82 73 74
b 66 82 74 75
b 67 82 75 76
b 68 82 76 77
b 69 82 77 78
b 70 82 78 79
b 71 82 79 80
b 72 83 4 84
b 73 92 6 3
b 74 92 12 70
b 75 92 70 81
b 76 97 32 85
b 77 97 85 86
b 78 97 86 87
b 79 97 87 88
b 80 97 88 89
b 81 97 89 90
b 82 97 90 91
b 83 97 91 93
b 84 97 93 94
b 85 97 94 95
b 86 97 95 96
b 87 98 4 99
b 88 4 5
b 89 70 59
b 90 59 48
b 91 48 37
b 92 37 26
b 93 26 15
b 94 15 2
b 95 2 1
3 4
3 5
2 3
6 7
6 8
2 6
2 9
1 2
11 10
12 11
13 12
3 13
1 14
14 15
15 16
16 17
4 18
1 19
7 20
20 21
21 22
22 23
23 24
24 25
25 26
26 27
27 28
28 29
29 30
30 31
6 32
8 33
33 34
10 35
35 36
36 37
10 38
38 39
39 40
40 41
41 42
11 43
43 44
44 45
12 46
13 47
47 48
48 49
49 50
50 51
51 52
52 53
53 54
54 55
55 56
56 57
57 58
5 59
9 60
60 61
61 62
62 63
63 64
64 65
65 66
66 67
67 68
68 69
69 70
70 71
9 72
4 73
2 74
74 75
8 76
76 77
77 78
78 79
79 80
80 81
81 82
82 83
83 84
84 85
85 86
1 87
1 88
74 89
89 90
90 91
91 92
92 93
93 94
94 95
